[[88, 89, 90, 99, 98, 97, 96, 87, 86, 95, 94, 93, 92, 91, 82, 83, 73], [84, 85, 76, 77, 78, 68, 67, 75, 66, 74, 65, 64, 55, 56, 57, 58, 59, 60, 49, 50, 46, 47, 48], [39, 40, 41, 32, 38, 37, 28, 29, 30, 31, 19, 20, 21, 22, 23, 13, 12, 11, 10, 2], [3, 4, 14, 5, 15, 6, 7, 8, 9, 18, 17, 16, 24, 25, 26, 27, 35, 36, 44], [34, 33, 43, 42, 45, 54, 53, 51, 52, 63, 62, 61, 70, 69, 71, 72, 81, 80, 79]]